15	4	2
3912	3912	3912	3912	
238	316	334	
980	124	130	
102	948	1039	
639	579	629	
766	653	653	
74	30	31	
999	57	59	
293	937	996	
808	926	971	
319	940	1027	
138	86	88	
216	356	367	
452	299	299	
657	789	830	
191	784	841	
